p cnf 15	78
1	2	3	0
-1	-2	-3	0
1	2	5	0
-1	-2	-5	0
1	2	9	0
-1	-2	-9	0
1	2	12	0
-1	-2	-12	0
1	2	14	0
-1	-2	-14	0
1	3	9	0
-1	-3	-9	0
1	3	12	0
-1	-3	-12	0
1	5	9	0
-1	-5	-9	0
1	5	14	0
-1	-5	-14	0
1	12	14	0
-1	-12	-14	0
2	3	4	0
-2	-3	-4	0
2	3	7	0
-2	-3	-7	0
2	3	9	0
-2	-3	-9	0
2	3	12	0
-2	-3	-12	0
2	4	5	0
-2	-4	-5	0
2	4	7	0
-2	-4	-7	0
2	5	9	0
-2	-5	-9	0
2	5	14	0
-2	-5	-14	0
2	7	9	0
-2	-7	-9	0
2	12	14	0
-2	-12	-14	0
3	4	7	0
-3	-4	-7	0
3	7	9	0
-3	-7	-9	0
3	7	13	0
-3	-7	-13	0
3	8	9	0
-3	-8	-9	0
3	8	12	0
-3	-8	-12	0
3	9	13	0
-3	-9	-13	0
3	12	13	0
-3	-12	-13	0
4	5	11	0
-4	-5	-11	0
4	6	7	0
-4	-6	-7	0
5	8	9	0
-5	-8	-9	0
5	8	11	0
-5	-8	-11	0
5	9	11	0
-5	-9	-11	0
5	9	13	0
-5	-9	-13	0
5	10	13	0
-5	-10	-13	0
5	11	13	0
-5	-11	-13	0
6	8	12	0
-6	-8	-12	0
7	9	13	0
-7	-9	-13	0
8	9	11	0
-8	-9	-11	0
9	11	13	0
-9	-11	-13	0